69

O      0.843851   -0.229109   -1.051106
C      1.829215   -1.123380   -1.487569
C      2.894185   -0.679973   -2.290249
C      3.858320   -1.581772   -2.742826
C      3.760098   -2.932723   -2.409591
C      2.711379   -3.380703   -1.603099
C      1.769351   -2.474049   -1.086834
P      0.308170   -3.101057   -0.120367
C      0.237414   -1.913754    1.302963
C     -1.000729   -1.707847    1.927785
C     -1.104179   -0.859285    3.033816
C      0.031239   -0.213596    3.528596
C      1.270439   -0.413384    2.914906
C      1.376747   -1.259618    1.806566
C      1.048107   -4.504739    0.837407
C      2.335132   -4.442153    1.401547
C      2.836399   -5.522611    2.133804
C      2.058521   -6.669149    2.312739
C      0.778222   -6.737131    1.757939
C      0.274741   -5.658652    1.024245
C      0.265126    0.789445   -1.822846
C      0.175773    0.687892   -3.223411
C     -0.469539    1.681413   -3.961914
C     -1.046409    2.772094   -3.310888
C     -0.969164    2.879349   -1.920698
C     -0.294643    1.901559   -1.169254
P     -0.157202    2.005421    0.678054
C      0.275735    3.804088    0.821705
C     -0.690520    4.827676    0.844982
C     -0.297032    6.165467    0.947699
C      1.058429    6.493874    1.025117
C      2.023301    5.484409    0.996882
C      1.633444    4.145846    0.893897
C     -1.942459    1.984370    1.170666
C     -2.903129    1.308908    0.398403
C     -4.225560    1.215970    0.842433
C     -4.592254    1.767134    2.072627
C     -3.633255    2.399520    2.867317
C     -2.310405    2.493318    2.426059
Cu     2.046112    0.868824    0.741685
H     -1.712547   -1.663546   -1.272782
H      2.975600    0.364361   -2.562981
H      4.673355   -1.235693   -3.365219
H      4.491517   -3.636384   -2.785595
H      2.632828   -4.438663   -1.392415
H     -1.887318   -2.206768    1.557416
H     -2.065444   -0.699566    3.504925
H     -0.050693    0.447509    4.381492
H      2.148371    0.093483    3.293834
H      2.343708   -1.385166    1.342821
H      2.960954   -3.573662    1.265614
H      3.829523   -5.471571    2.561099
H      2.447858   -7.504526    2.880171
H      0.175011   -7.624881    1.897483
H     -0.720726   -5.721207    0.603013
H      0.575159   -0.173627   -3.741796
H     -0.540463    1.595140   -5.038483
H     -1.563632    3.531045   -3.883592
H     -1.449297    3.717193   -1.441359
H     -1.745134    4.605716    0.770320
H     -1.043974    6.948629    0.963397
H      1.360930    7.530079    1.103779
H      3.073757    5.738828    1.053878
H      2.391221    3.372634    0.871097
H     -2.635103    0.838763   -0.537387
H     -4.963553    0.704076    0.238488
H     -5.615393    1.690103    2.417001
H     -3.912213    2.807088    3.830314
H     -1.570498    2.960680    3.063409
