186

C     -1.498995    2.310251   -5.093712
O     -2.003418    0.968994   -5.109630
C     -1.443878    0.291208   -4.043165
C     -1.598197   -1.042195   -3.697629
C     -0.880629   -1.523827   -2.592139
C     -0.031090   -0.665703   -1.840817
P      0.987450   -1.306185   -0.411293
C      0.692440   -3.141408   -0.454197
C     -0.541801   -3.607811   -0.013385
C     -0.852514   -4.980740    0.012710
C      0.215001   -5.896678   -0.226410
C      1.428905   -5.450135   -0.825100
C      1.669989   -4.059016   -0.846812
C      2.623425   -1.139982   -1.263135
C      3.664601   -0.523680   -0.579309
C      4.928969   -0.332794   -1.178066
C      5.125070   -0.872000   -2.484186
C      4.007919   -1.283291   -3.272959
C      2.788163   -1.491031   -2.603079
C      0.078648    0.708235   -2.213374
C      0.964953    1.678514   -1.510055
C      0.939971    1.891988   -0.096465
P     -0.066476    0.780963    1.016769
C     -1.813147    1.088690    0.465094
C     -2.802571    0.254139    0.973303
C     -4.165349    0.456009    0.681426
C     -4.482347    1.426349   -0.313963
C     -3.519666    2.401631   -0.704235
C     -2.177016    2.180730   -0.326198
C     -0.127089    1.778376    2.575797
C      0.544701    1.293857    3.693869
C      0.561442    2.008590    4.911180
C     -0.232755    3.190246    4.988736
C     -0.721784    3.810954    3.799052
C     -0.711901    3.042302    2.620112
C      1.845874    2.825030    0.478708
C      2.727083    3.566950   -0.320338
C      2.725590    3.325501   -1.683706
O      3.537245    3.886280   -2.650300
C      3.204433    3.287312   -3.908090
O      2.146659    2.368232   -3.611241
C      1.889730    2.423991   -2.253300
C     -0.646943    1.128833   -3.335909
O     -0.676060    2.381442   -3.923297
C     -2.333032   -5.385464    0.252742
C     -2.736510   -5.049511    1.702982
C     -2.634237   -6.882037   -0.013113
C     -3.245480   -4.589895   -0.719680
C      2.451112   -6.445864   -1.448243
C      1.718746   -7.419562   -2.403308
C      3.181467   -7.247256   -0.350714
C      3.536740   -5.732732   -2.300645
O      0.115300   -7.225165    0.187773
C      0.331070   -7.590682    1.550019
C      6.045496    0.470910   -0.451219
C      7.236749   -0.440794   -0.083736
C      5.555099    1.130325    0.865085
C      6.531464    1.619332   -1.365904
C      4.031774   -1.477147   -4.814590
C      5.328539   -0.974036   -5.498246
C      3.836463   -2.968840   -5.155950
C      2.871821   -0.667275   -5.454395
O      6.426836   -1.052044   -2.953343
C      7.062750   -2.327257   -2.888206
C     -5.214866   -0.337821    1.508822
C     -5.134286   -1.834762    1.151694
C     -4.907924   -0.169479    3.020567
C     -6.676045    0.140928    1.314530
C     -3.938946    3.693593   -1.462118
C     -4.501691    3.355883   -2.860969
C     -5.012569    4.440882   -0.638273
C     -2.763673    4.687274   -1.665230
O     -5.720099    1.400820   -0.956852
C     -5.987570    0.467104   -2.002576
C      1.447885    1.539790    6.100918
C      0.578728    1.032914    7.271548
C      2.413773    0.388293    5.711473
C      2.335963    2.711737    6.582750
C     -1.226059    5.278096    3.704045
C     -2.745355    5.284350    3.435357
C     -0.510802    5.998591    2.528382
C     -0.937034    6.130361    4.965810
O     -0.570658    3.696057    6.244705
C     -1.832234    3.402865    6.844156
Cu     1.047041   -2.182727    2.259147
H     -0.207948   -1.633750    2.392702
H     -0.884511    2.493482   -5.998983
H     -2.328683    3.042799   -5.032426
H     -2.233032   -1.697629   -4.279239
H     -0.974046   -2.571994   -2.362081
H     -1.277949   -2.872794    0.283656
H      2.630512   -3.683689   -1.141643
H      3.457552   -0.200152    0.428820
H      1.951157   -1.930511   -3.123598
H     -2.497358   -0.543513    1.635478
H     -1.400382    2.859010   -0.627589
H      1.056684    0.350500    3.581540
H     -1.142529    3.440150    1.719284
H      1.907971    2.960101    1.547858
H      3.420764    4.270484    0.119119
H      4.081600    2.740858   -4.315340
H      2.851135    4.061821   -4.620455
H     -2.126750   -5.624866    2.427068
H     -2.588045   -3.972489    1.924020
H     -3.806060   -5.294738    1.880046
H     -2.245566   -7.536200    0.789283
H     -2.222722   -7.198939   -0.995475
H     -3.730027   -7.068231   -0.033345
H     -4.309521   -4.891250   -0.607757
H     -2.940908   -4.776096   -1.772489
H     -3.213583   -3.497324   -0.540305
H      2.441130   -8.065278   -2.946262
H      1.029650   -8.100309   -1.866817
H      1.129994   -6.849990   -3.154187
H      2.538632   -8.039675    0.076355
H      3.522748   -6.571252    0.462552
H      4.071335   -7.767321   -0.766793
H      3.068245   -5.078884   -3.066793
H      4.174456   -6.469916   -2.836423
H      4.219607   -5.129690   -1.663831
H     -0.428983   -7.128302    2.207597
H      1.331085   -7.252202    1.890255
H      0.266525   -8.693620    1.645144
H      7.881544   -0.651891   -0.958074
H      7.898291    0.046355    0.666009
H      6.875649   -1.398127    0.349322
H      4.678461    1.784355    0.679268
H      5.288273    0.360230    1.621362
H      6.350634    1.764487    1.314695
H      7.290479    2.244151   -0.845607
H      7.004470    1.243410   -2.294402
H      5.677868    2.270796   -1.651962
H      5.206928   -0.936874   -6.603109
H      6.182652   -1.655931   -5.324903
H      5.582996    0.051922   -5.156995
H      4.604228   -3.595216   -4.657655
H      3.911690   -3.133614   -6.252957
H      2.837298   -3.327777   -4.829134
H      2.891836   -0.751333   -6.563185
H      2.959735    0.406791   -5.189752
H      1.871415   -1.026313   -5.135763
H      7.074447   -2.703451   -1.844360
H      8.104347   -2.235691   -3.257002
H      6.525913   -3.066043   -3.513026
H     -5.892718   -2.416891    1.717724
H     -4.136200   -2.245822    1.401317
H     -5.309643   -1.994614    0.069321
H     -3.941648   -0.629832    3.310555
H     -4.876638    0.908621    3.290127
H     -5.684312   -0.662881    3.644225
H     -7.348979   -0.313575    2.074239
H     -6.749353    1.244730    1.420446
H     -7.090388   -0.176637    0.339819
H     -4.491087    4.244690   -3.528295
H     -3.894861    2.559631   -3.338426
H     -5.559188    3.028984   -2.814559
H     -5.934674    3.837808   -0.510731
H     -4.620982    4.688752    0.372347
H     -5.307658    5.387222   -1.142373
H     -2.313038    4.976854   -0.690267
H     -1.981415    4.248967   -2.321657
H     -3.112143    5.623263   -2.155703
H     -5.281410    0.613359   -2.844695
H     -7.023071    0.615688   -2.369696
H     -5.880807   -0.572110   -1.638790
H      0.131537    1.868027    7.843723
H      1.188092    0.458782    8.002847
H     -0.228460    0.367922    6.897355
H      3.105203    0.146497    6.547688
H      3.037728    0.673875    4.836412
H      1.851746   -0.542578    5.479434
H      3.017859    2.382429    7.396549
H      2.955190    3.095462    5.743205
H      1.741484    3.554524    6.986493
H     -2.982976    4.793081    2.467726
H     -3.289702    4.743289    4.235444
H     -3.132855    6.325818    3.392991
H     -0.802440    5.590942    1.538828
H     -0.771084    7.078988    2.500519
H      0.592106    5.908086    2.632984
H     -1.605189    5.868976    5.807379
H      0.126583    6.030316    5.275067
H     -1.129021    7.208788    4.771009
H     -1.990453    2.306087    6.903083
H     -2.659246    3.840170    6.253309
H     -1.856565    3.828531    7.868140
