74

C      0.845651    1.809694   -0.602350
C      1.771672    1.567785    0.581830
P      1.518798   -0.161840    1.257237
C      2.669587    0.021270    2.737241
C      1.981849   -0.370092    4.026462
C      2.071902    0.468691    5.152140
C      1.459645    0.106280    6.355652
C      0.758314   -1.097925    6.450308
C      0.673401   -1.945717    5.343441
C      1.287114   -1.589951    4.138877
C      3.925314   -0.821376    2.485433
C      4.177591   -0.830479    0.984686
C      2.828936   -1.126824    0.329639
C      2.749693   -0.970663   -1.178698
C      1.826444   -1.765254   -1.884672
C      1.704404   -1.655608   -3.271255
C      2.485284   -0.736298   -3.972047
C      3.397882    0.067780   -3.287331
C      3.535181   -0.046668   -1.900125
P     -0.558505    0.568847   -0.587805
C     -1.883975    1.515198    0.337553
C     -1.422036    2.056760    1.679218
C     -1.411571    1.182854    2.783079
C     -0.981938    1.622025    4.036949
C     -0.536674    2.933270    4.204660
C     -0.531720    3.811279    3.119565
C     -0.972797    3.381828    1.863644
C     -2.506216    2.516588   -0.635443
C     -2.640788    1.789085   -1.965191
C     -1.311705    1.075336   -2.237715
C     -1.495657   -0.114536   -3.153600
C     -1.080404   -0.037130   -4.495295
C     -1.268912   -1.120777   -5.358367
C     -1.876941   -2.289226   -4.893642
C     -2.305681   -2.373398   -3.566985
C     -2.123706   -1.291169   -2.701119
Cu   -25.028116  -21.281330   -0.334481
H     -0.234682   -1.057563    0.609452
H      0.468701    2.852389   -0.597309
H      1.419865    1.669973   -1.540520
H      2.828302    1.745942    0.297340
H      1.518147    2.289881    1.384220
H      2.994484    1.082660    2.804384
H      2.611600    1.405999    5.098921
H      1.527209    0.761014    7.214793
H      0.283082   -1.375490    7.382278
H      0.135095   -2.881636    5.419920
H      1.221915   -2.266052    3.295710
H      4.798938   -0.395537    3.025281
H      3.778155   -1.869278    2.830055
H      4.571628    0.165381    0.699871
H      4.926396   -1.607085    0.717110
H      2.618060   -2.196748    0.556407
H      1.197239   -2.472953   -1.358881
H      0.999088   -2.281420   -3.801340
H      2.381276   -0.645506   -5.045494
H      3.999136    0.784100   -3.832197
H      4.243029    0.602157   -1.408369
H     -2.682703    0.768162    0.548181
H     -1.735629    0.155251    2.672014
H     -0.989920    0.941733    4.877957
H     -0.194711    3.268112    5.175322
H     -0.182045    4.827108    3.250725
H     -0.940464    4.089069    1.049743
H     -3.499810    2.856664   -0.271228
H     -1.858151    3.401039   -0.797406
H     -2.875699    2.507081   -2.780930
H     -3.477263    1.058588   -1.890478
H     -0.635022    1.810728   -2.725362
H     -0.607858    0.860250   -4.874768
H     -0.940931   -1.055012   -6.387701
H     -2.019834   -3.127753   -5.562914
H     -2.782933   -3.276812   -3.209874
H     -2.476001   -1.369933   -1.680405
