76

C      2.374849   -4.357585    1.853498
C      1.610822   -3.655278    0.704060
C      1.558806   -4.576127   -0.536552
C      2.370059   -2.373047    0.327077
C      3.718411   -2.434014   -0.089868
C      4.420939   -1.274725   -0.414326
C      3.791439   -0.035150   -0.356229
C      2.443271    0.054392    0.017365
P      1.552780    1.681935    0.047940
C      2.270357    2.379941   -1.518027
C      1.659274    2.029673   -2.729974
C      2.158142    2.510639   -3.943556
C      3.284208    3.336085   -3.958310
C      3.917755    3.671983   -2.759860
C      3.420372    3.192978   -1.543832
C      2.499032    2.593156    1.357394
C      3.248363    1.919640    2.338963
C      3.893797    2.639291    3.349404
C      3.773007    4.029792    3.407140
C      2.994132    4.701959    2.462537
C      2.347161    3.985530    1.451628
C      1.744301   -1.110212    0.381202
O      0.424561   -0.991473    0.806702
C     -0.354183   -2.073538    1.206188
C     -1.670394   -1.835653    1.654066
P     -2.295784   -0.089836    1.816230
C     -4.130595   -0.326141    1.712319
C     -4.730482   -1.143867    0.737769
C     -6.122137   -1.264721    0.679877
C     -6.924316   -0.566218    1.585757
C     -6.335247    0.254159    2.551189
C     -4.943668    0.376044    2.612181
C     -2.096270    0.561558    0.090780
C     -2.018243   -0.275352   -1.038051
C     -1.940500    0.277348   -2.319827
C     -1.945758    1.664227   -2.487237
C     -2.017391    2.501198   -1.371807
C     -2.098582    1.952028   -0.089087
C     -2.431226   -2.907059    2.142368
C     -1.936549   -4.206052    2.084597
C     -0.655790   -4.447171    1.593175
C      0.170857   -3.383403    1.170496
Cu    -2.148581    0.075853    2.318279
H     -0.124882    1.311921    2.507856
H      3.414168   -4.613049    1.562360
H      1.891161   -5.311369    2.147832
H      2.414878   -3.696492    2.746298
H      1.049763   -5.536161   -0.311345
H      1.009256   -4.074802   -1.362714
H      2.576584   -4.830390   -0.898706
H      4.239745   -3.378567   -0.159778
H      5.459050   -1.338628   -0.714251
H      4.362516    0.848710   -0.597661
H      0.801676    1.372310   -2.734870
H      1.675089    2.237685   -4.872857
H      3.672323    3.706050   -4.898465
H      4.800864    4.297670   -2.773399
H      3.954546    3.444243   -0.640403
H      3.329615    0.842302    2.341536
H      4.478927    2.116972    4.095287
H      4.271089    4.584486    4.191767
H      2.885836    5.777435    2.517437
H      1.734073    4.516134    0.733977
H     -4.129872   -1.702403    0.035854
H     -6.578740   -1.901195   -0.067024
H     -8.001545   -0.660207    1.539338
H     -6.956834    0.797593    3.251006
H     -4.498544    1.019551    3.360523
H     -2.023695   -1.351045   -0.940248
H     -1.879556   -0.370407   -3.184701
H     -1.884423    2.089928   -3.480393
H     -2.015670    3.575678   -1.501079
H     -2.167804    2.611457    0.766836
H     -3.407095   -2.745098    2.578166
H     -2.542159   -5.029930    2.439920
H     -0.306669   -5.470138    1.569599
